(declare-fun e () String)
(declare-fun c () String)
(declare-fun g () String)
(declare-fun b () String)
(declare-fun f () String)
(declare-fun a () String)
(declare-fun h () String)
(assert (= (str.++ h "b" a) (str.++ c e "d")))
(assert (= (str.++ f "ddeg" g) (str.++ h "g" e "d")))
(assert (= (str.++ "d" f) (str.++ c a b b "a")))

(check-sat)
